1603.0 21604.0 121.0 
1680.0 20563.0 154.0 
1612.0 21180.0 332.0 
1677.0 20464.0 407.0 
1613.0 21245.0 221.0 
1611.0 21358.0 239.0 
1575.0 20504.0 437.0 
1579.0 20374.0 495.0 
1682.0 20434.0 220.0 
1684.0 20342.0 473.0 
1622.0 20687.0 46.0 
1647.0 20497.0 262.0 
1747.0 20393.0 220.0 
1680.0 20491.0 220.0 
1643.0 20627.0 204.0 
1680.0 20491.0 220.0 
1614.0 20500.0 220.0 
1603.0 20643.0 362.0 
1620.0 20704.0 118.0 
1618.0 20841.0 0.0 
1614.0 21136.0 150.0 
1611.0 21358.0 239.0 
1620.0 20704.0 118.0 
1677.0 20491.0 224.0 
